c 
p cnf 10 40
2 9 1 0
-5 10 -9 0
-9 -10 6 0
1 -3 2 0
-4 1 -2 0
-9 5 -3 0
9 6 -7 0
7 10 -8 0
10 2 -5 0
8 -7 -3 0
4 6 5 0
6 10 -1 0
-1 9 -5 0
-5 -9 -1 0
-2 -6 -3 0
5 3 2 0
-5 9 2 0
4 -10 -9 0
8 -4 7 0
9 2 10 0
-5 7 4 0
1 -8 4 0
7 -3 -10 0
-5 10 -4 0
-1 6 -10 0
-7 5 -4 0
-3 -7 -6 0
-8 3 -1 0
-10 -5 2 0
-1 -2 7 0
-5 2 7 0
-8 -3 5 0
-6 1 10 0
4 10 -6 0
9 6 4 0
2 -5 -6 0
-3 -2 -4 0
6 5 4 0
-1 -7 -10 0
9 3 -4 0
